<number of tasks>
75

<cycle time>
29

<task times>
1 23
2 24
3 25
4 26
5 23
6 22
7 6
8 22
9 23
10 21
11 22
12 15
13 5
14 23
15 4
16 26
17 21
18 5
19 24
20 25
21 26
22 26
23 24
24 27
25 20
26 23
27 25
28 13
29 3
30 11
31 21
32 22
33 21
34 22
35 25
36 8
37 22
38 24
39 22
40 21
41 6
42 26
43 22
44 6
45 21
46 25
47 11
48 22
49 21
50 25
51 22
52 22
53 23
54 22
55 22
56 25
57 23
58 21
59 22
60 22
61 22
62 22
63 21
64 27
65 23
66 2
67 26
68 25
69 24
70 22
71 24
72 4
73 22
74 10
75 25

<task process alternatives>
1: 19,15 ; 28,8
2: 20,15 ; 29,8
3: 20,15 ; 30,8
4: 21,15 ; 32,8
5: 19,15 ; 28,8
6: 18,15 ; 27,8
7: 5,15 ; 8,8
8: 18,15 ; 27,8
9: 19,15 ; 28,8
10: 17,15 ; 26,8
11: 18,15 ; 27,8
12: 12,15 ; 18,8
13: 4,15 ; 6,8
14: 19,15 ; 28,8
15: 4,15 ; 5,8
16: 21,15 ; 32,8
17: 17,15 ; 26,8
18: 4,15 ; 6,8
19: 20,15 ; 29,8
20: 20,15 ; 30,8
21: 21,15 ; 32,8
22: 21,15 ; 32,8
23: 20,15 ; 29,8
24: 22,15 ; 33,8
25: 16,15 ; 24,8
26: 19,15 ; 28,8
27: 20,15 ; 30,8
28: 11,15 ; 16,8
29: 3,15 ; 4,8
30: 9,15 ; 14,8
31: 17,15 ; 26,8
32: 18,15 ; 27,8
33: 17,15 ; 26,8
34: 18,15 ; 27,8
35: 20,15 ; 30,8
36: 7,15 ; 10,8
37: 18,15 ; 27,8
38: 20,15 ; 29,8
39: 18,15 ; 27,8
40: 17,15 ; 26,8
41: 5,15 ; 8,8
42: 21,15 ; 32,8
43: 18,15 ; 27,8
44: 5,15 ; 8,8
45: 17,15 ; 26,8
46: 20,15 ; 30,8
47: 9,15 ; 14,8
48: 18,15 ; 27,8
49: 17,15 ; 26,8
50: 20,15 ; 30,8
51: 18,15 ; 27,8
52: 18,15 ; 27,8
53: 19,15 ; 28,8
54: 18,15 ; 27,8
55: 18,15 ; 27,8
56: 20,15 ; 30,8
57: 19,15 ; 28,8
58: 17,15 ; 26,8
59: 18,15 ; 27,8
60: 18,15 ; 27,8
61: 18,15 ; 27,8
62: 18,15 ; 27,8
63: 17,15 ; 26,8
64: 22,15 ; 33,8
65: 19,15 ; 28,8
66: 2,15 ; 3,8
67: 21,15 ; 32,8
68: 20,15 ; 30,8
69: 20,15 ; 29,8
70: 18,15 ; 27,8
71: 20,15 ; 29,8
72: 4,15 ; 5,8
73: 18,15 ; 27,8
74: 8,15 ; 12,8
75: 20,15 ; 30,8

<incompatible tasks>
60,17
35,67
73,24
43,36
15,51
24,62
5,74
47,64
54,9
1,43
67,10

<precedence relations>
47,53
58,65
18,26
35,42
59,64
3,13
46,48
39,51
17,30
49,62
68,75
6,11
15,23
50,54
26,32
25,34
59,66
5,12
3,24
27,36
6,13
62,67
18,30
68,70
27,29
47,50
55,63
16,26
49,59
1,3
68,72
36,43
47,52
42,47
43,48
26,41
31,37
66,68
49,61
1,5
24,25
16,21
25,33
43,50
31,39
1,7
27,35
2,15
12,19
46,51
36,40
47,49
25,28
15,20
32,45
4,8
50,60
52,57
21,33
1,2
53,58
68,74
6,10
26,31
50,62
1,4
50,55
1,6
10,18
9,20
68,69
15,17
33,41
35,38
4,14
5,15
40,46
68,71
13,22
25,30
32,44
52,56
4,16
20,27
9,24
68,73
6,9

<number of task attributes>
3

<task attribute values>
1,1:70
1,2:93
1,3:42
2,1:22
2,2:69
2,3:21
3,2:27
3,3:58
4,1:69
4,2:6
4,3:28
5,1:91
5,2:24
5,3:15
6,1:81
6,2:71
6,3:47
7,1:2
7,2:1
7,3:47
8,1:80
8,2:7
8,3:32
9,1:48
9,2:35
9,3:41
10,1:92
10,2:76
10,3:45
11,1:75
11,2:40
11,3:87
12,1:25
12,2:63
12,3:84
13,1:81
13,2:90
13,3:1
14,1:9
14,2:21
14,3:5
15,1:7
15,2:8
15,3:56
16,1:56
16,2:69
16,3:68
17,1:83
17,2:8
17,3:41
18,1:16
18,2:91
18,3:5
19,1:51
19,2:49
19,3:57
20,1:35
20,2:49
20,3:54
21,1:5
21,2:82
21,3:24
22,1:29
22,2:87
22,3:57
23,1:32
23,2:80
23,3:54
24,1:99
24,2:98
24,3:14
25,1:79
25,2:35
25,3:64
26,1:42
26,2:71
26,3:96
27,1:10
27,2:78
27,3:77
28,1:73
28,2:5
28,3:48
29,1:73
29,2:10
29,3:17
30,1:23
30,2:36
30,3:31
31,1:99
31,2:64
31,3:4
32,1:59
32,2:83
32,3:16
33,1:68
33,2:28
33,3:24
34,1:88
34,2:57
34,3:39
35,1:94
35,2:19
35,3:6
36,1:5
36,2:20
36,3:34
37,1:21
37,2:97
37,3:35
38,1:37
38,2:65
38,3:77
39,1:51
39,2:35
39,3:16
40,1:71
40,2:83
40,3:65
41,1:6
41,2:14
41,3:32
42,1:53
42,2:19
42,3:36
43,1:72
43,2:94
43,3:47
44,1:70
44,2:1
44,3:28
45,1:23
45,2:64
45,3:84
46,1:1
46,2:92
46,3:78
47,1:14
47,2:25
47,3:2
48,1:57
48,2:8
48,3:19
49,1:4
49,2:81
49,3:83
50,1:62
50,2:20
50,3:79
51,1:3
51,2:52
51,3:48
52,1:21
52,2:48
52,3:7
53,1:92
53,2:79
53,3:9
54,1:63
54,2:22
54,3:39
55,1:14
55,2:49
55,3:79
56,1:43
56,2:96
56,3:75
57,1:90
57,2:20
57,3:18
58,1:51
58,2:59
58,3:84
59,1:72
59,2:81
59,3:73
60,1:60
60,2:81
60,3:15
61,1:92
61,2:38
61,3:85
62,1:32
62,2:6
62,3:52
63,1:37
63,2:50
63,3:54
64,1:76
64,2:60
64,3:97
65,1:2
65,2:85
65,3:76
66,1:10
66,2:6
66,3:6
67,1:7
67,2:45
67,3:54
68,1:13
68,2:95
68,3:8
69,1:5
69,2:9
69,3:37
70,1:64
70,2:51
70,3:40
71,1:64
71,2:51
71,3:64
72,1:47
72,2:19
72,3:2
73,1:9
73,2:43
73,3:20
74,1:32
74,2:36
74,3:83
75,1:45
75,2:39
75,3:46

<attribute bounds per station>
1:100
2:100
3:100

<linked tasks>
41,51
59,66
72,75

<incompatible tasks>
1,5
1,6
1,27
1,28
1,49
1,61
1,75
2,24
2,33
2,42
2,45
2,47
2,48
2,63
3,8
3,19
3,25
3,33
3,36
3,40
3,59
3,63
3,73
4,9
4,25
4,32
4,48
4,72
5,9
5,10
5,13
5,48
5,54
5,56
5,64
5,74
6,16
6,23
6,26
6,42
6,44
6,53
6,55
6,56
6,57
6,62
7,11
7,20
7,27
7,43
7,46
7,50
7,51
7,59
7,60
7,61
7,62
7,63
8,11
8,65
9,11
9,42
9,53
10,15
10,16
10,17
10,25
10,28
10,42
10,65
11,12
11,13
11,18
11,28
11,29
11,34
11,51
11,60
11,64
11,65
11,69
12,22
12,45
12,46
12,55
12,56
12,71
12,72
13,14
13,21
13,34
13,52
13,63
14,28
14,39
14,50
14,56
14,62
14,74
15,40
15,50
15,57
15,62
16,19
16,22
16,26
16,30
16,31
16,39
16,40
16,57
16,66
16,69
17,27
17,29
17,31
17,35
17,41
17,47
17,55
17,57
17,60
17,62
17,74
18,31
18,43
19,22
19,53
20,26
20,30
20,40
20,46
20,47
20,49
20,57
20,58
20,64
20,75
21,34
21,37
21,41
21,44
21,51
21,56
21,71
22,28
22,29
22,31
22,34
22,46
22,47
22,64
22,73
23,43
23,47
23,49
24,25
24,49
25,35
25,47
25,50
25,51
25,58
25,65
25,66
26,42
26,46
26,51
26,55
26,57
26,69
27,40
27,44
27,49
27,62
28,42
29,52
29,55
29,62
29,72
30,38
30,47
31,49
31,50
32,45
32,58
32,60
32,62
32,68
33,45
33,48
33,49
33,57
33,67
33,73
33,75
34,36
34,38
34,56
34,65
34,73
35,38
35,44
35,52
35,57
35,62
35,70
36,64
36,72
37,39
37,43
37,45
37,49
37,52
37,56
37,73
38,42
38,44
38,56
38,61
38,68
39,75
40,49
40,60
41,70
41,71
41,72
42,46
42,55
42,56
42,60
42,74
43,50
43,52
43,62
43,65
43,70
43,72
44,52
44,60
44,65
44,69
45,51
45,53
46,66
47,48
47,71
48,51
48,62
48,72
49,55
50,65
50,67
51,57
51,58
51,69
51,70
53,61
53,66
54,56
54,64
54,71
55,68
55,70
56,62
56,67
56,70
58,61
58,69
59,73
60,62
61,66
61,68
61,70
62,68
65,67
66,67
66,70
66,72
71,72
71,75

<optimal SALBP-1 value>
63

<rand seed>
236278236

<end>
